p cnf 112 83
-1 15 79 -80 -82 -83 -84 -85 -86 -91 -93 -94 -95 -96 -97 -98 -99 -100 -107 -108 -109 -112 0 
-2 66 80 -79 -82 -83 -84 -85 -86 -91 -93 -94 -95 -96 -97 -98 -99 -100 -107 -108 -109 -112 0 
-3 23 49 60 -4 80 -79 -82 -83 -84 -85 -86 -91 -93 -94 -95 -96 -97 -98 -99 -100 -107 -108 -109 -112 0 
-5 -6 13 48 67 73 -7 81 -79 -80 -82 -83 -84 -85 -86 -91 -93 -94 -95 -96 -97 -98 -99 -100 -107 -108 -109 -112 0 
-8 11 30 35 36 46 53 77 82 -79 -80 -83 -84 -85 -86 -91 -93 -94 -95 -96 -97 -98 -99 -100 -107 -108 -109 -112 0 
-9 83 -79 -80 -82 -84 -85 -86 -91 -93 -94 -95 -96 -97 -98 -99 -100 -107 -108 -109 -112 0 
-10 14 28 32 33 37 40 51 52 54 84 -79 -80 -82 -83 -85 -86 -91 -93 -94 -95 -96 -97 -98 -99 -100 -107 -108 -109 -112 0 
-11 8 30 35 36 46 53 77 85 -79 -80 -82 -83 -84 -86 -91 -93 -94 -95 -96 -97 -98 -99 -100 -107 -108 -109 -112 0 
-12 83 -79 -80 -82 -84 -85 -86 -91 -93 -94 -95 -96 -97 -98 -99 -100 -107 -108 -109 -112 0 
-13 6 48 67 73 82 -79 -80 -83 -84 -85 -86 -91 -93 -94 -95 -96 -97 -98 -99 -100 -107 -108 -109 -112 0 
-14 10 28 32 33 37 40 51 52 54 86 -79 -80 -82 -83 -84 -85 -91 -93 -94 -95 -96 -97 -98 -99 -100 -107 -108 -109 -112 0 
-15 1 87 -88 -89 -92 -101 0 
-15 1 88 -87 -89 -92 -101 0 
-16 -15 1 82 -79 -80 -83 -84 -85 -86 -91 -93 -94 -95 -96 -97 -98 -99 -100 -107 -108 -109 -112 0 
-15 1 82 -79 -80 -83 -84 -85 -86 -91 -93 -94 -95 -96 -97 -98 -99 -100 -107 -108 -109 -112 0 
-15 1 89 -87 -88 -92 -101 0 
-17 90 -79 -80 -82 -83 -84 -85 -86 -91 -93 -94 -95 -96 -97 -98 -99 -100 -107 -108 -109 -112 -31 0 
-15 1 -18 -19 91 -79 -80 -82 -83 -84 -85 -86 -93 -94 -95 -96 -97 -98 -99 -100 -107 -108 -109 -112 0 
-20 -21 25 79 -80 -82 -83 -84 -85 -86 -91 -93 -94 -95 -96 -97 -98 -99 -100 -107 -108 -109 -112 0 
-22 41 56 -4 80 -79 -82 -83 -84 -85 -86 -91 -93 -94 -95 -96 -97 -98 -99 -100 -107 -108 -109 -112 0 
-23 3 49 60 -24 79 -80 -82 -83 -84 -85 -86 -91 -93 -94 -95 -96 -97 -98 -99 -100 -107 -108 -109 -112 0 
-25 21 -4 80 -79 -82 -83 -84 -85 -86 -91 -93 -94 -95 -96 -97 -98 -99 -100 -107 -108 -109 -112 0 
-15 1 92 -87 -88 -89 -101 0 
-26 83 -79 -80 -82 -84 -85 -86 -91 -93 -94 -95 -96 -97 -98 -99 -100 -107 -108 -109 -112 0 
-5 83 -79 -80 -82 -84 -85 -86 -91 -93 -94 -95 -96 -97 -98 -99 -100 -107 -108 -109 -112 0 
-27 50 58 78 93 -79 -80 -82 -83 -84 -85 -86 -91 -94 -95 -96 -97 -98 -99 -100 -107 -108 -109 -112 0 
-28 10 14 32 33 37 40 51 52 54 82 -79 -80 -83 -84 -85 -86 -91 -93 -94 -95 -96 -97 -98 -99 -100 -107 -108 -109 -112 0 
-29 55 62 80 -79 -82 -83 -84 -85 -86 -91 -93 -94 -95 -96 -97 -98 -99 -100 -107 -108 -109 -112 0 
-30 8 11 35 36 46 53 77 79 -80 -82 -83 -84 -85 -86 -91 -93 -94 -95 -96 -97 -98 -99 -100 -107 -108 -109 -112 0 
-31 -18 79 -80 -82 -83 -84 -85 -86 -91 -93 -94 -95 -96 -97 -98 -99 -100 -107 -108 -109 -112 0 
-32 10 14 28 33 37 40 51 52 54 94 -79 -80 -82 -83 -84 -85 -86 -91 -93 -95 -96 -97 -98 -99 -100 -107 -108 -109 -112 0 
-33 10 14 28 32 37 40 51 52 54 79 -80 -82 -83 -84 -85 -86 -91 -93 -94 -95 -96 -97 -98 -99 -100 -107 -108 -109 -112 0 
-34 63 65 -15 1 95 -79 -80 -82 -83 -84 -85 -86 -91 -93 -94 -96 -97 -98 -99 -100 -107 -108 -109 -112 0 
-35 8 11 30 36 46 53 77 -13 6 48 67 73 96 -79 -80 -82 -83 -84 -85 -86 -91 -93 -94 -95 -97 -98 -99 -100 -107 -108 -109 -112 0 
-36 8 11 30 35 46 53 77 97 -79 -80 -82 -83 -84 -85 -86 -91 -93 -94 -95 -96 -98 -99 -100 -107 -108 -109 -112 0 
-37 10 14 28 32 33 40 51 52 54 98 -79 -80 -82 -83 -84 -85 -86 -91 -93 -94 -95 -96 -97 -99 -100 -107 -108 -109 -112 0 
-15 1 -38 -39 44 99 -79 -80 -82 -83 -84 -85 -86 -91 -93 -94 -95 -96 -97 -98 -100 -107 -108 -109 -112 0 
-38 82 -79 -80 -83 -84 -85 -86 -91 -93 -94 -95 -96 -97 -98 -99 -100 -107 -108 -109 -112 0 
-16 -38 82 -79 -80 -83 -84 -85 -86 -91 -93 -94 -95 -96 -97 -98 -99 -100 -107 -108 -109 -112 0 
-40 10 14 28 32 33 37 51 52 54 100 -79 -80 -82 -83 -84 -85 -86 -91 -93 -94 -95 -96 -97 -98 -99 -107 -108 -109 -112 0 
-41 22 56 -38 -15 1 101 -87 -88 -89 -92 0 
-42 -43 45 71 102 -79 -80 -82 -83 -84 -85 -86 -91 -93 -94 -95 -96 -97 -98 -99 -100 -107 -108 -109 -112 0 
-15 1 -38 -44 39 99 -79 -80 -82 -83 -84 -85 -86 -91 -93 -94 -95 -96 -97 -98 -100 -107 -108 -109 -112 0 
-5 -45 43 71 103 -79 -80 -82 -83 -84 -85 -86 -91 -93 -94 -95 -96 -97 -98 -99 -100 -107 -108 -109 -112 -21 -25 0 
-26 -45 43 71 104 -79 -80 -82 -83 -84 -85 -86 -91 -93 -94 -95 -96 -97 -98 -99 -100 -107 -108 -109 -112 -7 0 
-9 -45 43 71 105 -79 -80 -82 -83 -84 -85 -86 -91 -93 -94 -95 -96 -97 -98 -99 -100 -107 -108 -109 -112 -22 -41 -56 0 
-9 -38 106 -2 -66 -79 -80 -82 -83 -84 -85 -86 -91 -93 -94 -95 -96 -97 -98 -99 -100 -107 -108 -109 -112 0 
-9 -45 43 71 90 -79 -80 -82 -83 -84 -85 -86 -91 -93 -94 -95 -96 -97 -98 -99 -100 -107 -108 -109 -112 -31 0 
-46 8 11 30 35 36 53 77 107 -79 -80 -82 -83 -84 -85 -86 -91 -93 -94 -95 -96 -97 -98 -99 -100 -108 -109 -112 0 
-47 90 -79 -80 -82 -83 -84 -85 -86 -91 -93 -94 -95 -96 -97 -98 -99 -100 -107 -108 -109 -112 -31 0 
-47 105 -79 -80 -82 -83 -84 -85 -86 -91 -93 -94 -95 -96 -97 -98 -99 -100 -107 -108 -109 -112 -22 -41 -56 0 
-48 6 13 67 73 104 -79 -80 -82 -83 -84 -85 -86 -91 -93 -94 -95 -96 -97 -98 -99 -100 -107 -108 -109 -112 -7 0 
-49 3 23 60 102 -79 -80 -82 -83 -84 -85 -86 -91 -93 -94 -95 -96 -97 -98 -99 -100 -107 -108 -109 -112 0 
-50 27 58 78 -15 1 103 -79 -80 -82 -83 -84 -85 -86 -91 -93 -94 -95 -96 -97 -98 -99 -100 -107 -108 -109 -112 -21 -25 0 
-51 10 14 28 32 33 37 40 52 54 95 -79 -80 -82 -83 -84 -85 -86 -91 -93 -94 -96 -97 -98 -99 -100 -107 -108 -109 -112 0 
-52 10 14 28 32 33 37 40 51 54 108 -79 -80 -82 -83 -84 -85 -86 -91 -93 -94 -95 -96 -97 -98 -99 -100 -107 -109 -112 0 
-53 8 11 30 35 36 46 77 109 -79 -80 -82 -83 -84 -85 -86 -91 -93 -94 -95 -96 -97 -98 -99 -100 -107 -108 -112 0 
-54 10 14 28 32 33 37 40 51 52 85 -79 -80 -82 -83 -84 -86 -91 -93 -94 -95 -96 -97 -98 -99 -100 -107 -108 -109 -112 0 
-55 29 62 -56 22 41 86 -79 -80 -82 -83 -84 -85 -91 -93 -94 -95 -96 -97 -98 -99 -100 -107 -108 -109 -112 0 
-57 82 -79 -80 -83 -84 -85 -86 -91 -93 -94 -95 -96 -97 -98 -99 -100 -107 -108 -109 -112 0 
-58 27 50 78 -15 1 94 -79 -80 -82 -83 -84 -85 -86 -91 -93 -95 -96 -97 -98 -99 -100 -107 -108 -109 -112 0 
-59 72 -60 3 23 49 105 -79 -80 -82 -83 -84 -85 -86 -91 -93 -94 -95 -96 -97 -98 -99 -100 -107 -108 -109 -112 -22 -41 -56 0 
-59 72 -61 104 -79 -80 -82 -83 -84 -85 -86 -91 -93 -94 -95 -96 -97 -98 -99 -100 -107 -108 -109 -112 -7 0 
-59 72 -61 103 -79 -80 -82 -83 -84 -85 -86 -91 -93 -94 -95 -96 -97 -98 -99 -100 -107 -108 -109 -112 -21 -25 0 
-59 72 -62 29 55 102 -79 -80 -82 -83 -84 -85 -86 -91 -93 -94 -95 -96 -97 -98 -99 -100 -107 -108 -109 -112 0 
-59 72 -61 90 -79 -80 -82 -83 -84 -85 -86 -91 -93 -94 -95 -96 -97 -98 -99 -100 -107 -108 -109 -112 -31 0 
-63 34 65 110 -79 -80 -82 -83 -84 -85 -86 -91 -93 -94 -95 -96 -97 -98 -99 -100 -107 -108 -109 -112 -24 0 
-64 -15 1 85 -79 -80 -82 -83 -84 -86 -91 -93 -94 -95 -96 -97 -98 -99 -100 -107 -108 -109 -112 0 
-65 34 63 -38 85 -79 -80 -82 -83 -84 -86 -91 -93 -94 -95 -96 -97 -98 -99 -100 -107 -108 -109 -112 0 
-64 -38 -15 1 85 -79 -80 -82 -83 -84 -86 -91 -93 -94 -95 -96 -97 -98 -99 -100 -107 -108 -109 -112 0 
-66 2 -67 6 13 48 73 -68 83 -79 -80 -82 -84 -85 -86 -91 -93 -94 -95 -96 -97 -98 -99 -100 -107 -108 -109 -112 0 
-69 99 -79 -80 -82 -83 -84 -85 -86 -91 -93 -94 -95 -96 -97 -98 -100 -107 -108 -109 -112 0 
-70 -71 43 45 106 -2 -66 -79 -80 -82 -83 -84 -85 -86 -91 -93 -94 -95 -96 -97 -98 -99 -100 -107 -108 -109 -112 0 
-72 59 79 -80 -82 -83 -84 -85 -86 -91 -93 -94 -95 -96 -97 -98 -99 -100 -107 -108 -109 -112 0 
-73 6 13 48 67 105 -79 -80 -82 -83 -84 -85 -86 -91 -93 -94 -95 -96 -97 -98 -99 -100 -107 -108 -109 -112 -22 -41 -56 0 
-73 6 13 48 67 111 -79 -80 -82 -83 -84 -85 -86 -91 -93 -94 -95 -96 -97 -98 -99 -100 -107 -108 -109 -112 0 
-74 102 -79 -80 -82 -83 -84 -85 -86 -91 -93 -94 -95 -96 -97 -98 -99 -100 -107 -108 -109 -112 0 
-75 104 -79 -80 -82 -83 -84 -85 -86 -91 -93 -94 -95 -96 -97 -98 -99 -100 -107 -108 -109 -112 -7 0 
-76 103 -79 -80 -82 -83 -84 -85 -86 -91 -93 -94 -95 -96 -97 -98 -99 -100 -107 -108 -109 -112 -21 -25 0 
-77 8 11 30 35 36 46 53 108 -79 -80 -82 -83 -84 -85 -86 -91 -93 -94 -95 -96 -97 -98 -99 -100 -107 -109 -112 0 
-78 27 50 58 85 -79 -80 -82 -83 -84 -86 -91 -93 -94 -95 -96 -97 -98 -99 -100 -107 -108 -109 -112 0 
-73 6 13 48 67 90 -79 -80 -82 -83 -84 -85 -86 -91 -93 -94 -95 -96 -97 -98 -99 -100 -107 -108 -109 -112 -31 0 
-15 1 112 -79 -80 -82 -83 -84 -85 -86 -91 -93 -94 -95 -96 -97 -98 -99 -100 -107 -108 -109 0 
